8368
24, 48, 37, 34, 35, 49, 32, 45, 19, 10, 9, 8, 41, 3, 17, 18, 31, 21, 42, 7, 2, 30, 29, 47, 26, 28, 27, 13, 14, 52, 11, 12, 51, 33, 43, 4, 25, 46, 44, 16, 50, 20, 23, 22, 1, 36, 39, 40, 38, 15, 6, 5
